c Reduced graph for p25_0 generated by Cyril Grelier
p edge 36 120
e 1 2
e 1 3
e 1 4
e 1 5
e 1 9
e 1 10
e 1 11
e 1 15
e 1 18
e 1 23
e 2 3
e 2 4
e 2 7
e 2 11
e 2 13
e 2 22
e 2 23
e 2 27
e 3 4
e 3 11
e 3 23
e 3 24
e 3 25
e 3 30
e 4 11
e 4 16
e 4 23
e 4 28
e 4 34
e 5 9
e 5 10
e 5 12
e 5 13
e 5 15
e 5 18
e 5 24
e 6 7
e 6 8
e 6 12
e 6 16
e 6 19
e 6 21
e 6 26
e 6 32
e 7 8
e 7 13
e 7 16
e 7 22
e 7 27
e 7 32
e 8 14
e 8 16
e 8 17
e 8 20
e 8 29
e 8 32
e 9 10
e 9 15
e 9 17
e 9 18
e 9 28
e 9 33
e 10 15
e 10 18
e 10 19
e 10 20
e 10 30
e 11 23
e 11 31
e 11 33
e 12 13
e 12 19
e 12 21
e 12 24
e 12 26
e 13 22
e 13 24
e 13 27
e 14 17
e 14 20
e 14 25
e 14 29
e 14 31
e 14 35
e 15 18
e 15 26
e 15 27
e 16 28
e 16 32
e 16 34
e 17 20
e 17 28
e 17 29
e 17 33
e 18 29
e 18 34
e 19 20
e 19 21
e 19 26
e 19 30
e 20 29
e 20 30
e 21 22
e 21 26
e 21 36
e 22 27
e 22 36
e 23 36
e 24 25
e 24 30
e 25 30
e 25 31
e 25 35
e 26 27
e 28 33
e 28 34
e 29 34
e 31 33
e 31 35
e 32 35
